experiments/sat_smt/run/sat-r+/results/unnamed.res
solved=true
solvingTime=342.781951904296875
nActions=16