experiments/sat_smt/run/sat-r+/results/unnamed.out
Timesteps: 1
s UNSATISFIABLE
real 0.21
user 0.02
sys 0.00
Timesteps: 2
s UNSATISFIABLE
real 0.17
user 0.06
sys 0.00
Timesteps: 3
s UNSATISFIABLE
real 0.32
user 0.11
sys 0.01
Timesteps: 4
s UNSATISFIABLE
real 0.46
user 0.24
sys 0.01
Timesteps: 5
s UNSATISFIABLE
real 0.58
user 0.40
sys 0.01
Timesteps: 6
s UNSATISFIABLE
real 0.94
user 0.73
sys 0.02
Timesteps: 7
s UNSATISFIABLE
real 1.19
user 0.89
sys 0.02
Timesteps: 8
s UNSATISFIABLE
real 3.54
user 2.87
sys 0.04
Timesteps: 9
s UNSATISFIABLE
real 7.20
user 6.42
sys 0.03
Timesteps: 10
s UNSATISFIABLE
real 13.12
user 12.23
sys 0.04
Timesteps: 11
s UNSATISFIABLE
real 26.28
user 25.27
sys 0.06
Timesteps: 12
s UNSATISFIABLE
real 26.66
user 25.54
sys 0.06
Timesteps: 13
s UNSATISFIABLE
real 28.16
user 27.05
sys 0.07
Timesteps: 14
s UNSATISFIABLE
real 52.28
user 51.52
sys 0.10
Timesteps: 15
s UNSATISFIABLE
real 145.92
user 144.76
sys 0.19
Timesteps: 16
s SATISFIABLE
real 39.37
user 38.66
sys 0.10
